c random cnf
p cnf 50 50
-17 -27 0
-26 28 0
38 -42 0
-20 37 0
12 -31 0
14 -23 0
7 28 0
-18 -27 0
33 50 0
-20 -28 0
-1 17 0
-1 29 0
16 29 0
34 37 0
-38 -42 0
-17 -35 0
15 -22 0
17 23 0
-3 31 0
17 -48 0
27 28 0
-14 48 0
-16 45 0
5 41 0
-31 -39 0
33 -43 0
9 48 0
-16 37 0
-7 43 0
-16 38 0
18 -36 0
42 -46 0
-12 -27 0
26 44 0
10 -23 0
-9 -47 0
8 50 0
17 -40 0
8 -18 0
-5 -29 0
2 -49 0
-4 18 0
-33 -48 0
-25 -35 0
-47 -48 0
41 -43 0
-22 41 0
5 8 0
-17 -19 0
-12 18 0
